clingo version 5.5.2
Reading from ...nt/beegfs/home/jubruns/encoding/mif.lp ...
Solving...
Answer: 1
move(1,(17,6),(18,6),1) move(1,(18,6),(18,7),2) move(1,(18,7),(18,8),3) move(1,(18,8),(18,9),4) move(1,(18,9),(18,10),5) move(1,(18,10),(17,10),6) move(1,(17,10),(17,11),7) move(1,(17,11),(17,12),8) move(1,(17,12),(17,13),9) move(1,(17,13),(17,14),10) move(1,(17,14),(18,14),11) move(1,(18,14),(19,14),12) move(1,(19,14),(19,15),13) move(1,(19,15),(19,16),14) move(1,(19,16),(19,17),15) move(1,(19,17),(19,18),16) move(1,(19,18),(19,19),17) move(1,(19,19),(20,19),18) move(1,(20,19),(20,20),19) move(1,(20,20),(20,21),20) move(1,(20,21),(20,22),21) move(1,(20,22),(19,22),22) move(1,(19,22),(18,22),23) move(1,(18,22),(17,22),24) move(1,(17,22),(17,23),25) move(1,(17,23),(17,24),26) move(1,(17,24),(16,24),27) move(1,(16,24),(16,25),28) move(1,(16,25),(16,26),29)
SATISFIABLE

Models       : 1+
Calls        : 1
Time         : 4.110s (Solving: 0.25s 1st Model: 0.25s Unsat: 0.00s)
CPU Time     : 4.084s

Choices      : 8901     (Domain: 325)
Conflicts    : 9        (Analyzed: 9)
Restarts     : 0       
Model-Level  : 8670.0  
Problems     : 1        (Average Length: 0.00 Splits: 0)
Lemmas       : 33       (Deleted: 0)
  Binary     : 3        (Ratio:   9.09%)
  Ternary    : 1        (Ratio:   3.03%)
  Conflict   : 9        (Average Length:   80.4 Ratio:  27.27%) 
  Loop       : 24       (Average Length:  449.1 Ratio:  72.73%) 
  Other      : 0        (Average Length:    0.0 Ratio:   0.00%) 
Backjumps    : 9        (Average: 25.67 Max: 115 Sum:    231)
  Executed   : 9        (Average: 25.67 Max: 115 Sum:    231 Ratio: 100.00%)
  Bounded    : 0        (Average:  0.00 Max:   0 Sum:      0 Ratio:   0.00%)

Rules        : 2511447  (Original: 3451989)
  Choice     : 18266   
  Heuristic  : 1982639  (Original: 3030215)
Atoms        : 313751   (Original: 301285 Auxiliary: 12466)
Bodies       : 331874   (Original: 289884)
  Count      : 30       (Original: 30465)
Equivalences : 460092   (Atom=Atom: 86234 Body=Body: 29491 Other: 344367)
Tight        : No       (SCCs: 1 Non-Hcfs: 0 Nodes: 89952 Gammas: 0)
Variables    : 255923   (Eliminated:    0 Frozen: 98511)
Constraints  : 709162   (Binary:  73.6% Ternary:  19.3% Other:   7.1%)

